.Version 8.4.2 of ABINIT
.(sequential version, prepared for a x86_64_linux_gnu6.3 computer)

 ABINIT is a project of the Universite Catholique de Louvain,
 Corning Inc. and other collaborators, see ~abinit/doc/developers/contributors.txt .
 Please read ~abinit/doc/users/acknowledgments.html for suggested
 acknowledgments of the ABINIT effort.

.Starting date : Thu  3 Aug 2017.
- ( at 21h20 )

- input  file    -> tbase3_5.in
- output file    -> tbase3_x.out
- root for input  files -> tbase3_xi
- root for output files -> tbase3_xo

 DATASET    1 : space group Fd -3 m (#227); Bravais cF (face-center cubic)
     intxc =       0    ionmov =       0      iscf =       7    lmnmax =       2
     lnmax =       2     mgfft =      20  mpssoang =       3    mqgrid =    3001
     natom =       2  nloc_mem =       1    nspden =       1   nspinor =       1
    nsppol =       1      nsym =      48    n1xccc =    2501    ntypat =       1
    occopt =       1   xclevel =       1
-    mband =           5        mffmem =           1         mkmem =          10
       mpw =         295          nfft =        8000          nkpt =          10
  Rough estimation (10% accuracy) of disk space for files :

 DATASET    2 : space group Fd -3 m (#227); Bravais cF (face-center cubic)
     intxc =       0    ionmov =       0      iscf =      -2    lmnmax =       2
     lnmax =       2     mgfft =      20  mpssoang =       3    mqgrid =    3001
     natom =       2  nloc_mem =       1    nspden =       1   nspinor =       1
    nsppol =       1      nsym =      48    n1xccc =    2501    ntypat =       1
    occopt =       1   xclevel =       1
-    mband =           8        mffmem =           1         mkmem =         105
       mpw =         303          nfft =        8000          nkpt =         105
  Rough estimation (10% accuracy) of disk space for files :

------------- Echo of variables that govern the present computation ------------
-
- outvars: echo of selected default values
-   iomode0 =  0 , fftalg0 =112 , wfoptalg0 =  0
-
- outvars: echo of global parameters not present in the input file
-  max_nthreads =    0
-
 -outvars: echo values of preprocessed input variables --------
            acell      1.0216000000E+01  1.0216000000E+01  1.0216000000E+01 Bohr
              amu      2.80855000E+01
           diemac      1.20000000E+01
             ecut      8.00000000E+00 Hartree
           enunit1          0
           enunit2          1
-          fftalg         112
           getden1          0
           getden2         -1
             iscf1          7
             iscf2         -2
           istwfk2       3    0    2    0    0    0    0    0    0    0
                         0    0    0    0    0    0    0    0    0    0
                         0    0    0    0    0    0    0    0    0    0
                         0    0    0    0    0    0    0    0    0    0
                         0    0    0    0    0    0    0    0    0    0
                       outvar_i_n : Printing only first  50 k-points.
           jdtset        1    2
              kpt1    -1.25000000E-01 -2.50000000E-01  0.00000000E+00
                      -1.25000000E-01  5.00000000E-01  0.00000000E+00
                      -2.50000000E-01 -3.75000000E-01  0.00000000E+00
                      -1.25000000E-01 -3.75000000E-01  1.25000000E-01
                      -1.25000000E-01  2.50000000E-01  0.00000000E+00
                      -2.50000000E-01  3.75000000E-01  0.00000000E+00
                      -3.75000000E-01  5.00000000E-01  0.00000000E+00
                      -2.50000000E-01  5.00000000E-01  1.25000000E-01
                      -1.25000000E-01  0.00000000E+00  0.00000000E+00
                      -3.75000000E-01  0.00000000E+00  0.00000000E+00
              kpt2     5.00000000E-01  0.00000000E+00  0.00000000E+00
                       2.50000000E-01  0.00000000E+00  0.00000000E+00
                       0.00000000E+00  0.00000000E+00  0.00000000E+00
                       0.00000000E+00  5.00000000E-03  5.00000000E-03
                       0.00000000E+00  1.00000000E-02  1.00000000E-02
                       0.00000000E+00  1.50000000E-02  1.50000000E-02
                       0.00000000E+00  2.00000000E-02  2.00000000E-02
                       0.00000000E+00  2.50000000E-02  2.50000000E-02
                       0.00000000E+00  3.00000000E-02  3.00000000E-02
                       0.00000000E+00  3.50000000E-02  3.50000000E-02
                       0.00000000E+00  4.00000000E-02  4.00000000E-02
                       0.00000000E+00  4.50000000E-02  4.50000000E-02
                       0.00000000E+00  5.00000000E-02  5.00000000E-02
                       0.00000000E+00  5.50000000E-02  5.50000000E-02
                       0.00000000E+00  6.00000000E-02  6.00000000E-02
                       0.00000000E+00  6.50000000E-02  6.50000000E-02
                       0.00000000E+00  7.00000000E-02  7.00000000E-02
                       0.00000000E+00  7.50000000E-02  7.50000000E-02
                       0.00000000E+00  8.00000000E-02  8.00000000E-02
                       0.00000000E+00  8.50000000E-02  8.50000000E-02
                       0.00000000E+00  9.00000000E-02  9.00000000E-02
                       0.00000000E+00  9.50000000E-02  9.50000000E-02
                       0.00000000E+00  1.00000000E-01  1.00000000E-01
                       0.00000000E+00  1.05000000E-01  1.05000000E-01
                       0.00000000E+00  1.10000000E-01  1.10000000E-01
                       0.00000000E+00  1.15000000E-01  1.15000000E-01
                       0.00000000E+00  1.20000000E-01  1.20000000E-01
                       0.00000000E+00  1.25000000E-01  1.25000000E-01
                       0.00000000E+00  1.30000000E-01  1.30000000E-01
                       0.00000000E+00  1.35000000E-01  1.35000000E-01
                       0.00000000E+00  1.40000000E-01  1.40000000E-01
                       0.00000000E+00  1.45000000E-01  1.45000000E-01
                       0.00000000E+00  1.50000000E-01  1.50000000E-01
                       0.00000000E+00  1.55000000E-01  1.55000000E-01
                       0.00000000E+00  1.60000000E-01  1.60000000E-01
                       0.00000000E+00  1.65000000E-01  1.65000000E-01
                       0.00000000E+00  1.70000000E-01  1.70000000E-01
                       0.00000000E+00  1.75000000E-01  1.75000000E-01
                       0.00000000E+00  1.80000000E-01  1.80000000E-01
                       0.00000000E+00  1.85000000E-01  1.85000000E-01
                       0.00000000E+00  1.90000000E-01  1.90000000E-01
                       0.00000000E+00  1.95000000E-01  1.95000000E-01
                       0.00000000E+00  2.00000000E-01  2.00000000E-01
                       0.00000000E+00  2.05000000E-01  2.05000000E-01
                       0.00000000E+00  2.10000000E-01  2.10000000E-01
                       0.00000000E+00  2.15000000E-01  2.15000000E-01
                       0.00000000E+00  2.20000000E-01  2.20000000E-01
                       0.00000000E+00  2.25000000E-01  2.25000000E-01
                       0.00000000E+00  2.30000000E-01  2.30000000E-01
                       0.00000000E+00  2.35000000E-01  2.35000000E-01
                       outvar_i_n : Printing only first  50 k-points.
           kptopt1          1
           kptopt2         -3
         kptrlatt        4   -4    4     -4    4    4     -4   -4    4
          kptrlen1     4.08640000E+01
          kptrlen2     3.00000000E+01
P           mkmem1         10
P           mkmem2        105
            natom           2
            nband1          5
            nband2          8
           nbdbuf1          0
           nbdbuf2          2
           ndtset           2
            ngfft          20      20      20
             nkpt1         10
             nkpt2        105
            nstep          10
             nsym          48
           ntypat           1
              occ      2.000000  2.000000  2.000000  2.000000  0.000000
            rprim      0.0000000000E+00  5.0000000000E-01  5.0000000000E-01
                       5.0000000000E-01  0.0000000000E+00  5.0000000000E-01
                       5.0000000000E-01  5.0000000000E-01  0.0000000000E+00
           shiftk      5.00000000E-01  5.00000000E-01  5.00000000E-01
          spgroup         227
           symrel      1  0  0   0  1  0   0  0  1      -1  0  0   0 -1  0   0  0 -1
                       0 -1  1   0 -1  0   1 -1  0       0  1 -1   0  1  0  -1  1  0
                      -1  0  0  -1  0  1  -1  1  0       1  0  0   1  0 -1   1 -1  0
                       0  1 -1   1  0 -1   0  0 -1       0 -1  1  -1  0  1   0  0  1
                      -1  0  0  -1  1  0  -1  0  1       1  0  0   1 -1  0   1  0 -1
                       0 -1  1   1 -1  0   0 -1  0       0  1 -1  -1  1  0   0  1  0
                       1  0  0   0  0  1   0  1  0      -1  0  0   0  0 -1   0 -1  0
                       0  1 -1   0  0 -1   1  0 -1       0 -1  1   0  0  1  -1  0  1
                      -1  0  1  -1  1  0  -1  0  0       1  0 -1   1 -1  0   1  0  0
                       0 -1  0   1 -1  0   0 -1  1       0  1  0  -1  1  0   0  1 -1
                       1  0 -1   0  0 -1   0  1 -1      -1  0  1   0  0  1   0 -1  1
                       0  1  0   0  0  1   1  0  0       0 -1  0   0  0 -1  -1  0  0
                       1  0 -1   0  1 -1   0  0 -1      -1  0  1   0 -1  1   0  0  1
                       0 -1  0   0 -1  1   1 -1  0       0  1  0   0  1 -1  -1  1  0
                      -1  0  1  -1  0  0  -1  1  0       1  0 -1   1  0  0   1 -1  0
                       0  1  0   1  0  0   0  0  1       0 -1  0  -1  0  0   0  0 -1
                       0  0 -1   0  1 -1   1  0 -1       0  0  1   0 -1  1  -1  0  1
                       1 -1  0   0 -1  1   0 -1  0      -1  1  0   0  1 -1   0  1  0
                       0  0  1   1  0  0   0  1  0       0  0 -1  -1  0  0   0 -1  0
                      -1  1  0  -1  0  0  -1  0  1       1 -1  0   1  0  0   1  0 -1
                       0  0  1   0  1  0   1  0  0       0  0 -1   0 -1  0  -1  0  0
                       1 -1  0   0 -1  0   0 -1  1      -1  1  0   0  1  0   0  1 -1
                       0  0 -1   1  0 -1   0  1 -1       0  0  1  -1  0  1   0 -1  1
                      -1  1  0  -1  0  1  -1  0  0       1 -1  0   1  0 -1   1  0  0
            tnons      0.0000000  0.0000000  0.0000000     0.2500000  0.2500000  0.2500000
                       0.0000000  0.0000000  0.0000000     0.2500000  0.2500000  0.2500000
                       0.0000000  0.0000000  0.0000000     0.2500000  0.2500000  0.2500000
                       0.0000000  0.0000000  0.0000000     0.2500000  0.2500000  0.2500000
                       0.0000000  0.0000000  0.0000000     0.2500000  0.2500000  0.2500000
                       0.0000000  0.0000000  0.0000000     0.2500000  0.2500000  0.2500000
                       0.0000000  0.0000000  0.0000000     0.2500000  0.2500000  0.2500000
                       0.0000000  0.0000000  0.0000000     0.2500000  0.2500000  0.2500000
[...]
 kpt#  97, nband=  8, wtk=  1.00000, kpt=  0.0000  0.4700  0.4700 (reduced coord)
  -2.42483   -1.48368    3.02087    3.02087    6.42564    6.64143   15.69376   15.69377
 kpt#  98, nband=  8, wtk=  1.00000, kpt=  0.0000  0.4750  0.4750 (reduced coord)
  -2.34941   -1.56484    3.01647    3.01647    6.43705    6.61678   15.76520   15.76520
 kpt#  99, nband=  8, wtk=  1.00000, kpt=  0.0000  0.4800  0.4800 (reduced coord)
  -2.27341   -1.64553    3.01288    3.01288    6.44962    6.59337   15.82925   15.82925
 kpt# 100, nband=  8, wtk=  1.00000, kpt=  0.0000  0.4850  0.4850 (reduced coord)
  -2.19688   -1.72628    3.00931    3.00931    6.46336    6.57094   15.87722   15.87730
 kpt# 101, nband=  8, wtk=  1.00000, kpt=  0.0000  0.4900  0.4900 (reduced coord)
  -2.11977   -1.80600    3.00730    3.00730    6.47829    6.54999   15.91927   15.91940
 kpt# 102, nband=  8, wtk=  1.00000, kpt=  0.0000  0.4950  0.4950 (reduced coord)
  -2.04212   -1.88523    3.00609    3.00609    6.49441    6.53026   15.94603   15.94626
 kpt# 103, nband=  8, wtk=  1.00000, kpt=  0.0000  0.5000  0.5000 (reduced coord)
  -1.96393   -1.96393    3.00569    3.00569    6.51173    6.51173   15.95524   15.95524
 kpt# 104, nband=  8, wtk=  1.00000, kpt=  0.5000  0.7500  0.7500 (reduced coord)
  -4.09077    0.39030    2.06892    4.56152    8.29805   10.69473   11.02843   11.97282
 kpt# 105, nband=  8, wtk=  1.00000, kpt=  1.0000  1.0000  1.0000 (reduced coord)
  -6.17005    5.91814    5.91814    5.91814    8.44836    8.44836    8.44836    9.17755

== END DATASET(S) ==============================================================

 -outvars: echo values of variables after computation  --------
            acell      1.0216000000E+01  1.0216000000E+01  1.0216000000E+01 Bohr
              amu      2.80855000E+01
           diemac      1.20000000E+01
             ecut      8.00000000E+00 Hartree
           enunit1          0
           enunit2          1
           etotal1    -8.8725594041E+00
            fcart1    -0.0000000000E+00 -0.0000000000E+00 -0.0000000000E+00
                      -0.0000000000E+00 -0.0000000000E+00 -0.0000000000E+00
-          fftalg         112
           getden1          0
           getden2         -1
             iscf1          7
             iscf2         -2
           istwfk2       3    0    2    0    0    0    0    0    0    0
                         0    0    0    0    0    0    0    0    0    0
                         0    0    0    0    0    0    0    0    0    0
                         0    0    0    0    0    0    0    0    0    0
                         0    0    0    0    0    0    0    0    0    0
                       outvar_i_n : Printing only first  50 k-points.
           jdtset        1    2
              kpt1    -1.25000000E-01 -2.50000000E-01  0.00000000E+00
                      -1.25000000E-01  5.00000000E-01  0.00000000E+00
                      -2.50000000E-01 -3.75000000E-01  0.00000000E+00
                      -1.25000000E-01 -3.75000000E-01  1.25000000E-01
                      -1.25000000E-01  2.50000000E-01  0.00000000E+00
                      -2.50000000E-01  3.75000000E-01  0.00000000E+00
                      -3.75000000E-01  5.00000000E-01  0.00000000E+00
                      -2.50000000E-01  5.00000000E-01  1.25000000E-01
                      -1.25000000E-01  0.00000000E+00  0.00000000E+00
                      -3.75000000E-01  0.00000000E+00  0.00000000E+00
              kpt2     5.00000000E-01  0.00000000E+00  0.00000000E+00
                       2.50000000E-01  0.00000000E+00  0.00000000E+00
                       0.00000000E+00  0.00000000E+00  0.00000000E+00
                       0.00000000E+00  5.00000000E-03  5.00000000E-03
                       0.00000000E+00  1.00000000E-02  1.00000000E-02
                       0.00000000E+00  1.50000000E-02  1.50000000E-02
                       0.00000000E+00  2.00000000E-02  2.00000000E-02
                       0.00000000E+00  2.50000000E-02  2.50000000E-02
                       0.00000000E+00  3.00000000E-02  3.00000000E-02
                       0.00000000E+00  3.50000000E-02  3.50000000E-02
                       0.00000000E+00  4.00000000E-02  4.00000000E-02
                       0.00000000E+00  4.50000000E-02  4.50000000E-02
                       0.00000000E+00  5.00000000E-02  5.00000000E-02
                       0.00000000E+00  5.50000000E-02  5.50000000E-02
                       0.00000000E+00  6.00000000E-02  6.00000000E-02
                       0.00000000E+00  6.50000000E-02  6.50000000E-02
                       0.00000000E+00  7.00000000E-02  7.00000000E-02
                       0.00000000E+00  7.50000000E-02  7.50000000E-02
                       0.00000000E+00  8.00000000E-02  8.00000000E-02
                       0.00000000E+00  8.50000000E-02  8.50000000E-02
                       0.00000000E+00  9.00000000E-02  9.00000000E-02
                       0.00000000E+00  9.50000000E-02  9.50000000E-02
                       0.00000000E+00  1.00000000E-01  1.00000000E-01
                       0.00000000E+00  1.05000000E-01  1.05000000E-01
                       0.00000000E+00  1.10000000E-01  1.10000000E-01
                       0.00000000E+00  1.15000000E-01  1.15000000E-01
                       0.00000000E+00  1.20000000E-01  1.20000000E-01
                       0.00000000E+00  1.25000000E-01  1.25000000E-01
                       0.00000000E+00  1.30000000E-01  1.30000000E-01
                       0.00000000E+00  1.35000000E-01  1.35000000E-01
                       0.00000000E+00  1.40000000E-01  1.40000000E-01
                       0.00000000E+00  1.45000000E-01  1.45000000E-01
                       0.00000000E+00  1.50000000E-01  1.50000000E-01
                       0.00000000E+00  1.55000000E-01  1.55000000E-01
                       0.00000000E+00  1.60000000E-01  1.60000000E-01
                       0.00000000E+00  1.65000000E-01  1.65000000E-01
                       0.00000000E+00  1.70000000E-01  1.70000000E-01
                       0.00000000E+00  1.75000000E-01  1.75000000E-01
                       0.00000000E+00  1.80000000E-01  1.80000000E-01
                       0.00000000E+00  1.85000000E-01  1.85000000E-01
                       0.00000000E+00  1.90000000E-01  1.90000000E-01
                       0.00000000E+00  1.95000000E-01  1.95000000E-01
                       0.00000000E+00  2.00000000E-01  2.00000000E-01
                       0.00000000E+00  2.05000000E-01  2.05000000E-01
                       0.00000000E+00  2.10000000E-01  2.10000000E-01
                       0.00000000E+00  2.15000000E-01  2.15000000E-01
                       0.00000000E+00  2.20000000E-01  2.20000000E-01
                       0.00000000E+00  2.25000000E-01  2.25000000E-01
                       0.00000000E+00  2.30000000E-01  2.30000000E-01
                       0.00000000E+00  2.35000000E-01  2.35000000E-01
                       outvar_i_n : Printing only first  50 k-points.
           kptopt1          1
           kptopt2         -3
         kptrlatt        4   -4    4     -4    4    4     -4   -4    4
          kptrlen1     4.08640000E+01
          kptrlen2     3.00000000E+01
P           mkmem1         10
P           mkmem2        105
            natom           2
            nband1          5
            nband2          8
           nbdbuf1          0
           nbdbuf2          2
           ndtset           2
            ngfft          20      20      20
             nkpt1         10
             nkpt2        105
            nstep          10
             nsym          48
           ntypat           1
              occ      2.000000  2.000000  2.000000  2.000000  0.000000
            rprim      0.0000000000E+00  5.0000000000E-01  5.0000000000E-01
                       5.0000000000E-01  0.0000000000E+00  5.0000000000E-01
                       5.0000000000E-01  5.0000000000E-01  0.0000000000E+00
           shiftk      5.00000000E-01  5.00000000E-01  5.00000000E-01
          spgroup         227
           strten1     2.9301643503E-05  2.9301643503E-05  2.9301643503E-05
                       0.0000000000E+00  0.0000000000E+00  0.0000000000E+00
           symrel      1  0  0   0  1  0   0  0  1      -1  0  0   0 -1  0   0  0 -1
                       0 -1  1   0 -1  0   1 -1  0       0  1 -1   0  1  0  -1  1  0
                      -1  0  0  -1  0  1  -1  1  0       1  0  0   1  0 -1   1 -1  0
                       0  1 -1   1  0 -1   0  0 -1       0 -1  1  -1  0  1   0  0  1
                      -1  0  0  -1  1  0  -1  0  1       1  0  0   1 -1  0   1  0 -1
                       0 -1  1   1 -1  0   0 -1  0       0  1 -1  -1  1  0   0  1  0
                       1  0  0   0  0  1   0  1  0      -1  0  0   0  0 -1   0 -1  0
                       0  1 -1   0  0 -1   1  0 -1       0 -1  1   0  0  1  -1  0  1
                      -1  0  1  -1  1  0  -1  0  0       1  0 -1   1 -1  0   1  0  0
                       0 -1  0   1 -1  0   0 -1  1       0  1  0  -1  1  0   0  1 -1
                       1  0 -1   0  0 -1   0  1 -1      -1  0  1   0  0  1   0 -1  1
                       0  1  0   0  0  1   1  0  0       0 -1  0   0  0 -1  -1  0  0
                       1  0 -1   0  1 -1   0  0 -1      -1  0  1   0 -1  1   0  0  1
                       0 -1  0   0 -1  1   1 -1  0       0  1  0   0  1 -1  -1  1  0
                      -1  0  1  -1  0  0  -1  1  0       1  0 -1   1  0  0   1 -1  0
                       0  1  0   1  0  0   0  0  1       0 -1  0  -1  0  0   0  0 -1
                       0  0 -1   0  1 -1   1  0 -1       0  0  1   0 -1  1  -1  0  1
                       1 -1  0   0 -1  1   0 -1  0      -1  1  0   0  1 -1   0  1  0
                       0  0  1   1  0  0   0  1  0       0  0 -1  -1  0  0   0 -1  0
                      -1  1  0  -1  0  0  -1  0  1       1 -1  0   1  0  0   1  0 -1
                       0  0  1   0  1  0   1  0  0       0  0 -1   0 -1  0  -1  0  0
                       1 -1  0   0 -1  0   0 -1  1      -1  1  0   0  1  0   0  1 -1
                       0  0 -1   1  0 -1   0  1 -1       0  0  1  -1  0  1   0 -1  1
                      -1  1  0  -1  0  1  -1  0  0       1 -1  0   1  0 -1   1  0  0
            tnons      0.0000000  0.0000000  0.0000000     0.2500000  0.2500000  0.2500000
                       0.0000000  0.0000000  0.0000000     0.2500000  0.2500000  0.2500000
                       0.0000000  0.0000000  0.0000000     0.2500000  0.2500000  0.2500000
                       0.0000000  0.0000000  0.0000000     0.2500000  0.2500000  0.2500000
                       0.0000000  0.0000000  0.0000000     0.2500000  0.2500000  0.2500000
                       0.0000000  0.0000000  0.0000000     0.2500000  0.2500000  0.2500000
                       0.0000000  0.0000000  0.0000000     0.2500000  0.2500000  0.2500000
                       0.0000000  0.0000000  0.0000000     0.2500000  0.2500000  0.2500000
                       0.0000000  0.0000000  0.0000000     0.2500000  0.2500000  0.2500000
                       0.0000000  0.0000000  0.0000000     0.2500000  0.2500000  0.2500000
                       0.0000000  0.0000000  0.0000000     0.2500000  0.2500000  0.2500000
                       0.0000000  0.0000000  0.0000000     0.2500000  0.2500000  0.2500000
                       0.0000000  0.0000000  0.0000000     0.2500000  0.2500000  0.2500000
                       0.0000000  0.0000000  0.0000000     0.2500000  0.2500000  0.2500000
                       0.0000000  0.0000000  0.0000000     0.2500000  0.2500000  0.2500000
                       0.0000000  0.0000000  0.0000000     0.2500000  0.2500000  0.2500000
                       0.0000000  0.0000000  0.0000000     0.2500000  0.2500000  0.2500000
                       0.0000000  0.0000000  0.0000000     0.2500000  0.2500000  0.2500000
                       0.0000000  0.0000000  0.0000000     0.2500000  0.2500000  0.2500000
                       0.0000000  0.0000000  0.0000000     0.2500000  0.2500000  0.2500000
                       0.0000000  0.0000000  0.0000000     0.2500000  0.2500000  0.2500000
                       0.0000000  0.0000000  0.0000000     0.2500000  0.2500000  0.2500000
                       0.0000000  0.0000000  0.0000000     0.2500000  0.2500000  0.2500000
                       0.0000000  0.0000000  0.0000000     0.2500000  0.2500000  0.2500000
           toldfe1     1.00000000E-06 Hartree
           toldfe2     0.00000000E+00 Hartree
           tolwfr1     0.00000000E+00
           tolwfr2     1.00000000E-12
            typat      1  1
              wtk1       0.09375    0.09375    0.09375    0.18750    0.09375    0.09375
                         0.09375    0.18750    0.03125    0.03125
              wtk2       1.00000    1.00000    1.00000    1.00000    1.00000    1.00000
                         1.00000    1.00000    1.00000    1.00000    1.00000    1.00000
                         1.00000    1.00000    1.00000    1.00000    1.00000    1.00000
                         1.00000    1.00000    1.00000    1.00000    1.00000    1.00000
                         1.00000    1.00000    1.00000    1.00000    1.00000    1.00000
                         1.00000    1.00000    1.00000    1.00000    1.00000    1.00000
                         1.00000    1.00000    1.00000    1.00000    1.00000    1.00000
                         1.00000    1.00000    1.00000    1.00000    1.00000    1.00000
                         1.00000    1.00000
                       outvars : Printing only first  50 k-points.
           xangst      0.0000000000E+00  0.0000000000E+00  0.0000000000E+00
                       1.3515185907E+00  1.3515185907E+00  1.3515185907E+00
            xcart      0.0000000000E+00  0.0000000000E+00  0.0000000000E+00
                       2.5540000000E+00  2.5540000000E+00  2.5540000000E+00
             xred      0.0000000000E+00  0.0000000000E+00  0.0000000000E+00
                       2.5000000000E-01  2.5000000000E-01  2.5000000000E-01
            znucl       14.00000

-
-  as well as % of the time and number of calls for node 0-
-<BEGIN_TIMER mpi_nprocs = 1, omp_nthreads = 1, mpi_rank = 0>
- cpu_time =           42.0, wall_time =           12.7
-
-                                                                  (-1=no count)
- fourwf%(pot)                  23.996  57.1      6.626  52.2          21050      -1.00        3.62       3.62
- projbd                         3.920   9.3      1.027   8.1          32488      -1.00        3.82       3.82
- vtowfk(ssdiag)                 3.760   8.9      1.227   9.7             -1      -1.00        3.06       3.06
- nonlop(apply)                  3.132   7.5      0.862   6.8          21050      -1.00        3.63       3.63
- getghc-other                   1.716   4.1      0.511   4.0             -1      -1.00        3.36       3.36
- pspini                         0.632   1.5      0.749   5.9              2      -1.00        0.84       0.84
- newkpt(excl. rwwf   )          0.216   0.5      0.070   0.6             -1      -1.00        3.09       3.09
- others (106)                   0.912   2.2      0.492   3.9             -1      -1.00        1.85       1.85
-<END_TIMER>
-
- subtotal                      38.284  91.1     11.564  91.0                                  3.31       3.31

- as well as % of the total time and number of calls

-<BEGIN_TIMER mpi_nprocs = 1, omp_nthreads = 1, mpi_rank = world>
- cpu_time =          42.0, wall_time =          12.7
-
-                                                                  (-1=no count)
- fourwf%(pot)                  23.996  57.1      6.626  52.2          21050      -1.00        3.62       3.62
- projbd                         3.920   9.3      1.027   8.1          32488      -1.00        3.82       3.82
- vtowfk(ssdiag)                 3.760   8.9      1.227   9.7             -1      -1.00        3.06       3.06
- nonlop(apply)                  3.132   7.5      0.862   6.8          21050      -1.00        3.63       3.63
- getghc-other                   1.716   4.1      0.511   4.0             -1      -1.00        3.36       3.36
- pspini                         0.632   1.5      0.749   5.9              2      -1.00        0.84       0.84
- newkpt(excl. rwwf   )          0.216   0.5      0.070   0.6             -1      -1.00        3.09       3.09
- others (106)                   0.912   2.2      0.492   3.9             -1      -1.00        1.85       1.85
-<END_TIMER>

- subtotal                      38.284  91.1     11.564  91.0                                  3.31       3.31

 Suggested references for the acknowledgment of ABINIT usage.

 Calculation completed.
.Delivered   2 WARNINGs and   2 COMMENTs to log file.